 C Co H O N Ti                          
   1.00000000000000     
    24.3011200000000009    0.0000000000000000    0.0000000000000000
     0.0000000000000000   20.8502299999999998    0.0000000000000000
     0.0000000000000000    0.0000000000000000   24.1585900000000002
   C    Co   H    O    N    Ti
    49     1    49     4     6     1
Direct
  0.0587878027574661  0.3346508302926647  0.6471518477471222
  0.0144830816421309  0.3558575668638856  0.6155353689606277
  0.9612873083514529  0.3352648671735922  0.6285696566801730
  0.9545261596430440  0.2942202136308115  0.6735449335152585
  0.0002686229639870  0.2742144926166225  0.7038281720029215
  0.1180260895927526  0.3563863719864717  0.6347672176168115
  0.1197824694307184  0.3968744017841632  0.5817787963100265
  0.1549436638899030  0.2969551400553769  0.6282546992707818
  0.1802734069984621  0.2807964880578487  0.5781724639232155
  0.2165328849706131  0.2289065699238163  0.5756566969140133
  0.2282469255853370  0.1957345990485491  0.6243756572513162
  0.2016342299051364  0.2139826911584281  0.6727326888379324
  0.1397181627547029  0.3956230212970052  0.6841644796006319
  0.1572378391496849  0.4592229505643039  0.6783505049704467
  0.1812197040142834  0.4915616281049119  0.7227381325737832
  0.1892973460374590  0.4579797865722527  0.7719735147108668
  0.1709544563535982  0.3950582794585179  0.7754449385930570
  0.9947733135581287  0.2302400007228041  0.7543961832658157
  0.9352098415997586  0.2065033101445020  0.7602395188534847
  0.0122126576919504  0.2682826916653414  0.8061883323179243
  0.9771473319536753  0.2754202193024565  0.8516429775144587
  0.9948436073866154  0.3068688270742742  0.8992816223603246
  0.0490110014296408  0.3294104065218875  0.9006024217880927
  0.0818780028146792  0.3213014031479416  0.8542433961177534
  0.0342907078487107  0.1728494310694330  0.7498085247557283
  0.0155195844341369  0.1096330478120596  0.7458604236914050
  0.0526160821751481  0.0586492709315054  0.7478054337543775
  0.1083638598213991  0.0724968434371787  0.7549369571563247
  0.1247222682393808  0.1361454221997967  0.7572248048236776
  0.1628264944901066  0.1517603802581070  0.9371186791752099
  0.2071710991373957  0.1481578823995720  0.9750757648424365
  0.1969626433501478  0.1297695775072329  0.0298347892460711
  0.1441987485040146  0.1137275829282910  0.0484623255825573
  0.1012231244835609  0.1159246575952377  0.0097737316068918
  0.1092266393927632  0.1341643522057999  0.9547935799213112
  0.2651186644597002  0.1609535032027130  0.9562366809981875
  0.1339303054249292  0.0943235502871469  0.1076539087781233
  0.0627360054395650  0.1358213039247204  0.9139471140924185
  0.3213904707731550  0.1653151296103394  0.8231244685004083
  0.3508842726019750  0.1784383482125412  0.8724906991945369
  0.3990086893271630  0.1443309091808511  0.8843820212612824
  0.4198655651229098  0.0973149340088105  0.8487623796303131
  0.3905733439871085  0.0855753390542206  0.7997767702102174
  0.3422751838789025  0.1180673700532674  0.7862453586487572
  0.3312752851732327  0.2306581932208913  0.9105183593656960
  0.4709507132725524  0.0597496224828786  0.8630074319198914
  0.3123874945578639  0.1051415803355914  0.7331010606168040
  0.2473921254811725  0.3373840415190795  0.9297767163446259
  0.2570874021896505  0.2775599045316794  0.9645649536742071
  0.1155117157921309  0.2750166912331901  0.7433337823139126
  0.0207460574623877  0.3877423173117887  0.5804954732154307
  0.9260688822110981  0.3507670278679288  0.6039664384799258
  0.9135236420304130  0.2774895934826148  0.6843287148054811
  0.0949341648283315  0.4405032804485795  0.5861838141904134
  0.1034697950763591  0.3698405467970963  0.5464413044653824
  0.1621718813108966  0.4111954104558997  0.5721475878737160
  0.1729159050680670  0.3091989144819970  0.5411122259815380
  0.2363716673587062  0.2161133443238277  0.5366438812114603
  0.2584063099151040  0.1570241505718181  0.6255199321180078
  0.2119013533921207  0.1930517503404020  0.7127680070732529
  0.1530177902351471  0.4837078922554188  0.6388311296741700
  0.1945458327641380  0.5412624360218534  0.7181730020173248
  0.2101711348463426  0.4793280316127060  0.8074184332188015
  0.1799374344006916  0.3664935393012997  0.8120760387107646
  0.9067741493268021  0.2466301266808001  0.7668041029670558
  0.9310798463791123  0.1735667824771693  0.7954199031608333
  0.9221281932164804  0.1811327844726828  0.7227043989986992
  0.9356550133614655  0.2560258118312083  0.8501932393856156
  0.9674151033404328  0.3123036655478093  0.9347289556399389
  0.0661852902452589  0.3527351813559547  0.9371760662784222
  0.1244737146016308  0.3369101725366790  0.8553653582499917
  0.9717216734572013  0.0996876809305044  0.7425031463072902
  0.0379431137414932  0.0092292736724632  0.7452949802085655
  0.1390616621305142  0.0347541723914021  0.7599462780637134
  0.1672241302649721  0.1495980861086239  0.7651162306477628
  0.2316740864095685  0.1277637493346915  0.0587255692537081
  0.0594811111188419  0.1033342890997430  0.0231542222484279
  0.2933093962400813  0.1573582127129578  0.9922934097909146
  0.2783577510100116  0.1242000508432133  0.9262421132274775
  0.0895954886887509  0.0911956399096688  0.1163949722953761
  0.1519011788995775  0.1288099331299561  0.1371071837119430
  0.1520001259088120  0.0470584158336690  0.1171269945409928
  0.0613184331937599  0.1820241442062954  0.8920282075250007
  0.0229619622616022  0.1278752285410889  0.9345513187050946
  0.0678300791808461  0.0988979938177957  0.8816668362625443
  0.4208857796513364  0.1551371255563450  0.9228921190522814
  0.4060010274969128  0.0493289830921881  0.7708418726784110
  0.3582555017898655  0.2322988973359370  0.9475912848706658
  0.3345382526544227  0.2775927135438329  0.8897373880191374
  0.4629233996826851  0.0241200829315728  0.8958121156247935
  0.5042657084319000  0.0910382194819713  0.8780642582013168
  0.4865478070226674  0.0333782411441601  0.8268117331786605
  0.3114519641442502  0.1484689690666603  0.7069283137649738
  0.2690777297635751  0.0919360718795626  0.7405716508608642
  0.3322999919991280  0.0662602079931208  0.7097579321378659
  0.2265302429705057  0.3739076417475011  0.9556359134567695
  0.2869316061547607  0.3588185415594211  0.9159747825900934
  0.2883572116209159  0.2858508044973684  0.9972871178480018
  0.2182948019097676  0.2640825741052001  0.9849188797143341
  0.1828619863763264  0.2544905951518914  0.7855838425651956
  0.1688548819141834  0.1713920609324047  0.8846804107827108
  0.2756479317874330  0.1963122900141516  0.8085507833827448
  0.2146145813794492  0.3220297030561702  0.8834873239448765
  0.0521221329735968  0.2939216403569898  0.6905951201058805
  0.1640248605475783  0.2615792896624857  0.6745312622771101
  0.1441821709496625  0.3649721054588703  0.7337005056246952
  0.0644050192653014  0.2929296900034524  0.8068843207587326
  0.0890856175298653  0.1858406800832071  0.7529142799243650
  0.2730764225378433  0.2236851875762771  0.9282447993778253
  0.2147679856011699  0.2373450354344703  0.8506924616005519
 
  0.00000000E+00  0.00000000E+00  0.00000000E+00
  0.00000000E+00  0.00000000E+00  0.00000000E+00
  0.00000000E+00  0.00000000E+00  0.00000000E+00
  0.00000000E+00  0.00000000E+00  0.00000000E+00
  0.00000000E+00  0.00000000E+00  0.00000000E+00
  0.00000000E+00  0.00000000E+00  0.00000000E+00
  0.00000000E+00  0.00000000E+00  0.00000000E+00
  0.00000000E+00  0.00000000E+00  0.00000000E+00
  0.00000000E+00  0.00000000E+00  0.00000000E+00
  0.00000000E+00  0.00000000E+00  0.00000000E+00
  0.00000000E+00  0.00000000E+00  0.00000000E+00
  0.00000000E+00  0.00000000E+00  0.00000000E+00
  0.00000000E+00  0.00000000E+00  0.00000000E+00
  0.00000000E+00  0.00000000E+00  0.00000000E+00
  0.00000000E+00  0.00000000E+00  0.00000000E+00
  0.00000000E+00  0.00000000E+00  0.00000000E+00
  0.00000000E+00  0.00000000E+00  0.00000000E+00
  0.00000000E+00  0.00000000E+00  0.00000000E+00
  0.00000000E+00  0.00000000E+00  0.00000000E+00
  0.00000000E+00  0.00000000E+00  0.00000000E+00
  0.00000000E+00  0.00000000E+00  0.00000000E+00
  0.00000000E+00  0.00000000E+00  0.00000000E+00
  0.00000000E+00  0.00000000E+00  0.00000000E+00
  0.00000000E+00  0.00000000E+00  0.00000000E+00
  0.00000000E+00  0.00000000E+00  0.00000000E+00
  0.00000000E+00  0.00000000E+00  0.00000000E+00
  0.00000000E+00  0.00000000E+00  0.00000000E+00
  0.00000000E+00  0.00000000E+00  0.00000000E+00
  0.00000000E+00  0.00000000E+00  0.00000000E+00
  0.00000000E+00  0.00000000E+00  0.00000000E+00
  0.00000000E+00  0.00000000E+00  0.00000000E+00
  0.00000000E+00  0.00000000E+00  0.00000000E+00
  0.00000000E+00  0.00000000E+00  0.00000000E+00
  0.00000000E+00  0.00000000E+00  0.00000000E+00
  0.00000000E+00  0.00000000E+00  0.00000000E+00
  0.00000000E+00  0.00000000E+00  0.00000000E+00
  0.00000000E+00  0.00000000E+00  0.00000000E+00
  0.00000000E+00  0.00000000E+00  0.00000000E+00
  0.00000000E+00  0.00000000E+00  0.00000000E+00
  0.00000000E+00  0.00000000E+00  0.00000000E+00
  0.00000000E+00  0.00000000E+00  0.00000000E+00
  0.00000000E+00  0.00000000E+00  0.00000000E+00
  0.00000000E+00  0.00000000E+00  0.00000000E+00
  0.00000000E+00  0.00000000E+00  0.00000000E+00
  0.00000000E+00  0.00000000E+00  0.00000000E+00
  0.00000000E+00  0.00000000E+00  0.00000000E+00
  0.00000000E+00  0.00000000E+00  0.00000000E+00
  0.00000000E+00  0.00000000E+00  0.00000000E+00
  0.00000000E+00  0.00000000E+00  0.00000000E+00
  0.00000000E+00  0.00000000E+00  0.00000000E+00
  0.00000000E+00  0.00000000E+00  0.00000000E+00
  0.00000000E+00  0.00000000E+00  0.00000000E+00
  0.00000000E+00  0.00000000E+00  0.00000000E+00
  0.00000000E+00  0.00000000E+00  0.00000000E+00
  0.00000000E+00  0.00000000E+00  0.00000000E+00
  0.00000000E+00  0.00000000E+00  0.00000000E+00
  0.00000000E+00  0.00000000E+00  0.00000000E+00
  0.00000000E+00  0.00000000E+00  0.00000000E+00
  0.00000000E+00  0.00000000E+00  0.00000000E+00
  0.00000000E+00  0.00000000E+00  0.00000000E+00
  0.00000000E+00  0.00000000E+00  0.00000000E+00
  0.00000000E+00  0.00000000E+00  0.00000000E+00
  0.00000000E+00  0.00000000E+00  0.00000000E+00
  0.00000000E+00  0.00000000E+00  0.00000000E+00
  0.00000000E+00  0.00000000E+00  0.00000000E+00
  0.00000000E+00  0.00000000E+00  0.00000000E+00
  0.00000000E+00  0.00000000E+00  0.00000000E+00
  0.00000000E+00  0.00000000E+00  0.00000000E+00
  0.00000000E+00  0.00000000E+00  0.00000000E+00
  0.00000000E+00  0.00000000E+00  0.00000000E+00
  0.00000000E+00  0.00000000E+00  0.00000000E+00
  0.00000000E+00  0.00000000E+00  0.00000000E+00
  0.00000000E+00  0.00000000E+00  0.00000000E+00
  0.00000000E+00  0.00000000E+00  0.00000000E+00
  0.00000000E+00  0.00000000E+00  0.00000000E+00
  0.00000000E+00  0.00000000E+00  0.00000000E+00
  0.00000000E+00  0.00000000E+00  0.00000000E+00
  0.00000000E+00  0.00000000E+00  0.00000000E+00
  0.00000000E+00  0.00000000E+00  0.00000000E+00
  0.00000000E+00  0.00000000E+00  0.00000000E+00
  0.00000000E+00  0.00000000E+00  0.00000000E+00
  0.00000000E+00  0.00000000E+00  0.00000000E+00
  0.00000000E+00  0.00000000E+00  0.00000000E+00
  0.00000000E+00  0.00000000E+00  0.00000000E+00
  0.00000000E+00  0.00000000E+00  0.00000000E+00
  0.00000000E+00  0.00000000E+00  0.00000000E+00
  0.00000000E+00  0.00000000E+00  0.00000000E+00
  0.00000000E+00  0.00000000E+00  0.00000000E+00
  0.00000000E+00  0.00000000E+00  0.00000000E+00
  0.00000000E+00  0.00000000E+00  0.00000000E+00
  0.00000000E+00  0.00000000E+00  0.00000000E+00
  0.00000000E+00  0.00000000E+00  0.00000000E+00
  0.00000000E+00  0.00000000E+00  0.00000000E+00
  0.00000000E+00  0.00000000E+00  0.00000000E+00
  0.00000000E+00  0.00000000E+00  0.00000000E+00
  0.00000000E+00  0.00000000E+00  0.00000000E+00
  0.00000000E+00  0.00000000E+00  0.00000000E+00
  0.00000000E+00  0.00000000E+00  0.00000000E+00
  0.00000000E+00  0.00000000E+00  0.00000000E+00
  0.00000000E+00  0.00000000E+00  0.00000000E+00
  0.00000000E+00  0.00000000E+00  0.00000000E+00
  0.00000000E+00  0.00000000E+00  0.00000000E+00
  0.00000000E+00  0.00000000E+00  0.00000000E+00
  0.00000000E+00  0.00000000E+00  0.00000000E+00
  0.00000000E+00  0.00000000E+00  0.00000000E+00
  0.00000000E+00  0.00000000E+00  0.00000000E+00
  0.00000000E+00  0.00000000E+00  0.00000000E+00
  0.00000000E+00  0.00000000E+00  0.00000000E+00
  0.00000000E+00  0.00000000E+00  0.00000000E+00
  0.00000000E+00  0.00000000E+00  0.00000000E+00
