 C H O N Fe Ti                          
   1.00000000000000     
    24.3011200000000009    0.0000000000000000    0.0000000000000000
     0.0000000000000000   20.8502299999999998    0.0000000000000000
     0.0000000000000000    0.0000000000000000   24.1585900000000002
   C    H    O    N    Fe   Ti
    49    49     4     6     1     1
Direct
  0.0583508057629630  0.3351620838413749  0.6474494530788238
  0.0145285271370058  0.3535408294505713  0.6140285203740994
  0.9614023376730880  0.3320405917784722  0.6255685405150055
  0.9545365678469617  0.2914018681715980  0.6708987825137602
 -0.0006488360700243  0.2740487788270962  0.7034311517177905
  0.1170263095074838  0.3572561370600701  0.6353677827652017
  0.1192586446062671  0.3974960499114756  0.5823412355063006
  0.1537595610551261  0.2978343643831962  0.6297789630387414
  0.1809968552610825  0.2825910927289382  0.5806378839873468
  0.2174372537597516  0.2309922920135908  0.5783802805980064
  0.2280180185524157  0.1978279682693775  0.6275748062240039
  0.1997321907407786  0.2149595025386458  0.6750696186072629
  0.1387454140699935  0.3959245991275437  0.6847503674626320
  0.1575165512158192  0.4589634475254079  0.6792283694948045
  0.1814249976984895  0.4908912419865390  0.7238579811386709
  0.1884253990929405  0.4566160913790536  0.7730386577086490
  0.1688871570929050  0.3943042696460969  0.7763337101649942
  0.9926512563355325  0.2302326545577688  0.7537005138228353
  0.9330027208411448  0.2071611517983735  0.7590388061019393
  0.0102065343155556  0.2680424458506420  0.8052524339597010
  0.9749493813058095  0.2775440587305282  0.8502152697197631
  0.9929485741299324  0.3093718297154051  0.8975992896536463
  0.0477001587813672  0.3298851102848352  0.8990321730567591
  0.0808363895693430  0.3193334605915925  0.8533239493395351
  0.0316355087495692  0.1726631424999970  0.7489514079600654
  0.0127494819813631  0.1093837330694967  0.7483404339497201
  0.0496539148621952  0.0582087207624941  0.7504480929369947
  0.1055985410028929  0.0725134248915757  0.7557923924920483
  0.1219523057102129  0.1360731317046310  0.7550907112977120
  0.1665716251197151  0.1510998737999412  0.9371453459259067
  0.2099501569195883  0.1470342234013158  0.9760462497122354
  0.1983260338816656  0.1284741075630016  0.0304879933899076
  0.1448944278289807  0.1131881522000049  0.0477551883928988
  0.1028143033805570  0.1167307664557433  0.0082418743968179
  0.1123413102234757  0.1350114203329607  0.9534289123846680
  0.2682775951830920  0.1604466382777738  0.9585255699324822
  0.1328552197037114  0.0936240078677924  0.1065571640095048
  0.0664944979913099  0.1381602220283448  0.9118805225685337
  0.3242110422861401  0.1672287222438665  0.8232241895007260
  0.3534447393332174  0.1789712290390445  0.8728158363745734
  0.4011112733334848  0.1438501423900058  0.8844485194460275
  0.4210489943693513  0.0966752509156304  0.8484457066966972
  0.3912767201948918  0.0856079025480487  0.7997150205993514
  0.3435819286743861  0.1195863914111103  0.7862611543710535
  0.3338289851618480  0.2304515233913458  0.9116342247374281
  0.4717785107414587  0.0582326640799606  0.8621058388989108
  0.3128157962573669  0.1071157924366512  0.7334946759594035
  0.2488223874778748  0.3356954736231715  0.9280175096086343
  0.2589556670775968  0.2772683096756459  0.9646067548918384
  0.0214873175734728  0.3847409631288748  0.5786366711116434
  0.9265119144198306  0.3461760336085952  0.5998852599179744
  0.9137193859186574  0.2732860389552150  0.6806252838417458
  0.0942432686533133  0.4410705686348361  0.5864070896719301
  0.1035092540188696  0.3702714111642624  0.5468237373681217
  0.1617175370624155  0.4119753023753985  0.5731202634875139
  0.1743444669314303  0.3113789448597432  0.5436719769494561
  0.2381305021674969  0.2185519991313116  0.5398063148852846
  0.2582344717155266  0.1592863053825380  0.6296154894386361
  0.2092125510620963  0.1927952854211532  0.7146282838239117
  0.1540576389781142  0.4835616884362569  0.6396641290495287
  0.1956611017908931  0.5402629946821544  0.7196371421068106
  0.2094391854177475  0.4770009795355716  0.8088240197784357
  0.1770831060088032  0.3659021831227304  0.8131376876926271
  0.9047897020139215  0.2477420390903081  0.7645529257405815
  0.9283657442864655  0.1751240758367353  0.7947977172862293
  0.9202377512007953  0.1807795870636856  0.7218452529202698
  0.9329838924116405  0.2594143355712842  0.8487122009746105
  0.9652656158043906  0.3166143439872951  0.9326111236281672
  0.0653542706692105  0.3531344227991768  0.9353554930989025
  0.1238747497790947  0.3330081308082036  0.8546630268306102
  0.9687941881182347  0.0995117013908854  0.7469324666681965
  0.0347899795276595  0.0088537335858931  0.7497504017155754
  0.1365387162684432  0.0351999893224663  0.7613317123766885
  0.1647411928179305  0.1489114657204456  0.7616048211756585
  0.2322482185937035  0.1260532268354846  0.0602668770167176
  0.0606040024495578  0.1052791790936222  0.0206343240096619
  0.2956225015754035  0.1576687593133995  0.9952906225060006
  0.2824105135366329  0.1232665361412384  0.9292904627251993
  0.0882875004600152  0.0906677996543398  0.1139230305786680
  0.1500209344628697  0.1280516335117195  0.1364855242742665
  0.1504936764313758  0.0462959018099334  0.1165098431596461
  0.0660378433788126  0.1848421878905179  0.8906593776784717
  0.0263170967034332  0.1305842705670800  0.9318150435033462
  0.0716651260333221  0.1016987373668836  0.8792651158113800
  0.4230542509456260  0.1536947107823979  0.9231287455143498
  0.4057348489279312  0.0487338165028369  0.7708785006734806
  0.3612813557717250  0.2321341890554262  0.9483734743352306
  0.3366340178024901  0.2775949471753428  0.8910393374376119
  0.4636219497076395  0.0227690888430700  0.8949721621570472
  0.5056110954005155  0.0889870816102488  0.8767260137234359
  0.4865898185730633  0.0316908488060884  0.8257112591026806
  0.3109574943630534  0.1507596405667090  0.7079240940995695
  0.2698677282214978  0.0929924978627341  0.7417630252547661
  0.3324780476824334  0.0688386454356228  0.7092140582927380
  0.2264872112765921  0.3726437996359891  0.9520854227683948
  0.2880959246252835  0.3580094912205211  0.9146672877189077
  0.2896035963372416  0.2877392462844237  0.9975253429827128
  0.2201681341869549  0.2636946655788258  0.9848989166259063
  0.1725575374960956  0.2549495605353745  0.7919797361166110
  0.1756718231738333  0.1698686541070088  0.8846586797076489
  0.2787106689670337  0.2005666487538343  0.8101670861305538
  0.2177278000779948  0.3178297743944026  0.8813036864015780
  0.0514737534047158  0.2962261511075222  0.6927157255922107
  0.1603623867528586  0.2611709148469736  0.6763887517712186
  0.1416857262907883  0.3645103092978808  0.7343995079380582
  0.0631592033152223  0.2905671451733112  0.8060442877241042
  0.0867151486259183  0.1861381017120505  0.7487652354532791
  0.2759082134865108  0.2227163101742896  0.9299562137224124
  0.1128406954973889  0.2759335355911129  0.7418633752530949
  0.2156052829864107  0.2353331911123988  0.8473004143656276
 
  0.00000000E+00  0.00000000E+00  0.00000000E+00
  0.00000000E+00  0.00000000E+00  0.00000000E+00
  0.00000000E+00  0.00000000E+00  0.00000000E+00
  0.00000000E+00  0.00000000E+00  0.00000000E+00
  0.00000000E+00  0.00000000E+00  0.00000000E+00
  0.00000000E+00  0.00000000E+00  0.00000000E+00
  0.00000000E+00  0.00000000E+00  0.00000000E+00
  0.00000000E+00  0.00000000E+00  0.00000000E+00
  0.00000000E+00  0.00000000E+00  0.00000000E+00
  0.00000000E+00  0.00000000E+00  0.00000000E+00
  0.00000000E+00  0.00000000E+00  0.00000000E+00
  0.00000000E+00  0.00000000E+00  0.00000000E+00
  0.00000000E+00  0.00000000E+00  0.00000000E+00
  0.00000000E+00  0.00000000E+00  0.00000000E+00
  0.00000000E+00  0.00000000E+00  0.00000000E+00
  0.00000000E+00  0.00000000E+00  0.00000000E+00
  0.00000000E+00  0.00000000E+00  0.00000000E+00
  0.00000000E+00  0.00000000E+00  0.00000000E+00
  0.00000000E+00  0.00000000E+00  0.00000000E+00
  0.00000000E+00  0.00000000E+00  0.00000000E+00
  0.00000000E+00  0.00000000E+00  0.00000000E+00
  0.00000000E+00  0.00000000E+00  0.00000000E+00
  0.00000000E+00  0.00000000E+00  0.00000000E+00
  0.00000000E+00  0.00000000E+00  0.00000000E+00
  0.00000000E+00  0.00000000E+00  0.00000000E+00
  0.00000000E+00  0.00000000E+00  0.00000000E+00
  0.00000000E+00  0.00000000E+00  0.00000000E+00
  0.00000000E+00  0.00000000E+00  0.00000000E+00
  0.00000000E+00  0.00000000E+00  0.00000000E+00
  0.00000000E+00  0.00000000E+00  0.00000000E+00
  0.00000000E+00  0.00000000E+00  0.00000000E+00
  0.00000000E+00  0.00000000E+00  0.00000000E+00
  0.00000000E+00  0.00000000E+00  0.00000000E+00
  0.00000000E+00  0.00000000E+00  0.00000000E+00
  0.00000000E+00  0.00000000E+00  0.00000000E+00
  0.00000000E+00  0.00000000E+00  0.00000000E+00
  0.00000000E+00  0.00000000E+00  0.00000000E+00
  0.00000000E+00  0.00000000E+00  0.00000000E+00
  0.00000000E+00  0.00000000E+00  0.00000000E+00
  0.00000000E+00  0.00000000E+00  0.00000000E+00
  0.00000000E+00  0.00000000E+00  0.00000000E+00
  0.00000000E+00  0.00000000E+00  0.00000000E+00
  0.00000000E+00  0.00000000E+00  0.00000000E+00
  0.00000000E+00  0.00000000E+00  0.00000000E+00
  0.00000000E+00  0.00000000E+00  0.00000000E+00
  0.00000000E+00  0.00000000E+00  0.00000000E+00
  0.00000000E+00  0.00000000E+00  0.00000000E+00
  0.00000000E+00  0.00000000E+00  0.00000000E+00
  0.00000000E+00  0.00000000E+00  0.00000000E+00
  0.00000000E+00  0.00000000E+00  0.00000000E+00
  0.00000000E+00  0.00000000E+00  0.00000000E+00
  0.00000000E+00  0.00000000E+00  0.00000000E+00
  0.00000000E+00  0.00000000E+00  0.00000000E+00
  0.00000000E+00  0.00000000E+00  0.00000000E+00
  0.00000000E+00  0.00000000E+00  0.00000000E+00
  0.00000000E+00  0.00000000E+00  0.00000000E+00
  0.00000000E+00  0.00000000E+00  0.00000000E+00
  0.00000000E+00  0.00000000E+00  0.00000000E+00
  0.00000000E+00  0.00000000E+00  0.00000000E+00
  0.00000000E+00  0.00000000E+00  0.00000000E+00
  0.00000000E+00  0.00000000E+00  0.00000000E+00
  0.00000000E+00  0.00000000E+00  0.00000000E+00
  0.00000000E+00  0.00000000E+00  0.00000000E+00
  0.00000000E+00  0.00000000E+00  0.00000000E+00
  0.00000000E+00  0.00000000E+00  0.00000000E+00
  0.00000000E+00  0.00000000E+00  0.00000000E+00
  0.00000000E+00  0.00000000E+00  0.00000000E+00
  0.00000000E+00  0.00000000E+00  0.00000000E+00
  0.00000000E+00  0.00000000E+00  0.00000000E+00
  0.00000000E+00  0.00000000E+00  0.00000000E+00
  0.00000000E+00  0.00000000E+00  0.00000000E+00
  0.00000000E+00  0.00000000E+00  0.00000000E+00
  0.00000000E+00  0.00000000E+00  0.00000000E+00
  0.00000000E+00  0.00000000E+00  0.00000000E+00
  0.00000000E+00  0.00000000E+00  0.00000000E+00
  0.00000000E+00  0.00000000E+00  0.00000000E+00
  0.00000000E+00  0.00000000E+00  0.00000000E+00
  0.00000000E+00  0.00000000E+00  0.00000000E+00
  0.00000000E+00  0.00000000E+00  0.00000000E+00
  0.00000000E+00  0.00000000E+00  0.00000000E+00
  0.00000000E+00  0.00000000E+00  0.00000000E+00
  0.00000000E+00  0.00000000E+00  0.00000000E+00
  0.00000000E+00  0.00000000E+00  0.00000000E+00
  0.00000000E+00  0.00000000E+00  0.00000000E+00
  0.00000000E+00  0.00000000E+00  0.00000000E+00
  0.00000000E+00  0.00000000E+00  0.00000000E+00
  0.00000000E+00  0.00000000E+00  0.00000000E+00
  0.00000000E+00  0.00000000E+00  0.00000000E+00
  0.00000000E+00  0.00000000E+00  0.00000000E+00
  0.00000000E+00  0.00000000E+00  0.00000000E+00
  0.00000000E+00  0.00000000E+00  0.00000000E+00
  0.00000000E+00  0.00000000E+00  0.00000000E+00
  0.00000000E+00  0.00000000E+00  0.00000000E+00
  0.00000000E+00  0.00000000E+00  0.00000000E+00
  0.00000000E+00  0.00000000E+00  0.00000000E+00
  0.00000000E+00  0.00000000E+00  0.00000000E+00
  0.00000000E+00  0.00000000E+00  0.00000000E+00
  0.00000000E+00  0.00000000E+00  0.00000000E+00
  0.00000000E+00  0.00000000E+00  0.00000000E+00
  0.00000000E+00  0.00000000E+00  0.00000000E+00
  0.00000000E+00  0.00000000E+00  0.00000000E+00
  0.00000000E+00  0.00000000E+00  0.00000000E+00
  0.00000000E+00  0.00000000E+00  0.00000000E+00
  0.00000000E+00  0.00000000E+00  0.00000000E+00
  0.00000000E+00  0.00000000E+00  0.00000000E+00
  0.00000000E+00  0.00000000E+00  0.00000000E+00
  0.00000000E+00  0.00000000E+00  0.00000000E+00
  0.00000000E+00  0.00000000E+00  0.00000000E+00
  0.00000000E+00  0.00000000E+00  0.00000000E+00
  0.00000000E+00  0.00000000E+00  0.00000000E+00
