 C H O N Ti Cr                          
   1.00000000000000     
    24.3011200000000009    0.0000000000000000    0.0000000000000000
     0.0000000000000000   20.8502299999999998    0.0000000000000000
     0.0000000000000000    0.0000000000000000   24.1585900000000002
   C    H    O    N    Ti   Cr
    49    49     4     6     1     1
Direct
  0.0589870957308207  0.3352761105840979  0.6475566119253008
  0.0150025315472603  0.3539925194685744  0.6144325281015450
  0.9618650552437888  0.3325896579056756  0.6260088532560834
  0.9548798741162763  0.2916915201573847  0.6711128816140047
 -0.0003889446607687  0.2738697930845062  0.7035705065598324
  0.1180214829967539  0.3571115195794606  0.6354353265458852
  0.1197300869672387  0.3973976510605093  0.5823556911390108
  0.1550741147305888  0.2976647636460535  0.6290470517910738
  0.1824762362110656  0.2836680937348459  0.5796620735790757
  0.2186846292442700  0.2318815595677306  0.5761808366508697
  0.2282916865778287  0.1964270048449260  0.6242803581469967
  0.1999029319820496  0.2121550891191913  0.6720472747826836
  0.1401513498365653  0.3965262283993540  0.6844825320493825
  0.1584792860740855  0.4596573236997861  0.6782565043510224
  0.1823385956069929  0.4925357872379832  0.7224281420302068
  0.1888881162636983  0.4594991049042845  0.7722639207515892
  0.1694873851187017  0.3972829498213911  0.7765048178342115
  0.9929090234555774  0.2296902380424685  0.7538505687219640
  0.9330791757865606  0.2069589486058070  0.7586539940582050
  0.0097185006550440  0.2674786756857703  0.8059337270953795
  0.9736964606933186  0.2765397602128946  0.8503282906074854
  0.9908578732047820  0.3080787295341344  0.8982096253371906
  0.0453029158243517  0.3292795092688948  0.9005255095711798
  0.0792552073912646  0.3195442239486734  0.8552817612847210
  0.0314920045833761  0.1713161558184291  0.7495635091110441
  0.0117426205064553  0.1083808726848598  0.7493587730927886
  0.0478807303014977  0.0564088177649360  0.7517744441708597
  0.1040195829591601  0.0695442863261288  0.7563863609129248
  0.1213722613278802  0.1327015528601366  0.7552938962525857
  0.1669233411421510  0.1515098580091544  0.9371907643806940
  0.2102420280321332  0.1470274274842708  0.9760784428647213
  0.1983375924219110  0.1284372470359402  0.0303966138664127
  0.1447874768419464  0.1134782069691359  0.0474586940957011
  0.1029039551402811  0.1172947439397758  0.0078062195258827
  0.1125686637002858  0.1358095232545737  0.9530729295580677
  0.2685917250712638  0.1602346788481948  0.9585853161386872
  0.1324569515632897  0.0939077454906404  0.1062041160667750
  0.0668529879442930  0.1392395565566409  0.9114468753198017
  0.3246380529836578  0.1679941577607837  0.8237124275764244
  0.3538968762520521  0.1793344866738889  0.8732936860238052
  0.4013806496849521  0.1437979045755060  0.8847450573513281
  0.4209563063365816  0.0967197850531653  0.8484537868545037
  0.3909733916877161  0.0860142381992619  0.7997869316084074
  0.3433708896488747  0.1203421646440775  0.7865507540936506
  0.3342510818769423  0.2306969428956933  0.9121767106652663
  0.4714862529574185  0.0578479612538553  0.8617041397925795
  0.3122734430229220  0.1080820194574729  0.7339791510461359
  0.2491254836608670  0.3358156180017993  0.9292908954715036
  0.2594828222655218  0.2770738865257331  0.9655657358641591
  0.0217903923269055  0.3853964899982014  0.5791861949379241
  0.9270045202203895  0.3470731842420078  0.6004947437234882
  0.9139774874739677  0.2738435004720317  0.6807615344059899
  0.0945505468007756  0.4408160684105565  0.5866669193894027
  0.1038587080625970  0.3701230676874218  0.5469359416362184
  0.1620072827933258  0.4122203252542529  0.5728542092639234
  0.1761577364663112  0.3136310343012668  0.5433602099309616
  0.2396001124082771  0.2207592695025975  0.5374291019174723
  0.2578303759303618  0.1570701370344960  0.6252087316255549
  0.2083901419267763  0.1875269426118610  0.7107211671432958
  0.1548078156690088  0.4836591972915798  0.6384750985418892
  0.1963237342258922  0.5419142656167193  0.7174736043104475
  0.2092267777026138  0.4811733319375884  0.8079246947152229
  0.1766151828708951  0.3698962758228401  0.8141606014814747
  0.9049940532729035  0.2477238947554131  0.7639207102609310
  0.9278909213798198  0.1749838558115240  0.7943495632763828
  0.9205539965872697  0.1807498869277439  0.7213053398629036
  0.9318729854147384  0.2581347213535731  0.8481771854055780
  0.9627169728265260  0.3146655729568141  0.9329250545253842
  0.0620635134068265  0.3526244520412392  0.9372675293743795
  0.1221742998459649  0.3339675211173129  0.8570403701945326
  0.9677084896688227  0.0991769866519452  0.7481562964693116
  0.0323455966049282  0.0073538623973737  0.7514837591229523
  0.1344225379212930  0.0314931479738563  0.7615025683857652
  0.1644994946130456  0.1446840952889449  0.7610596699831961
  0.2321330609284669  0.1257412318843100  0.0603093231311352
  0.0606234084360358  0.1057910120263594  0.0200394420223002
  0.2959935547589697  0.1569860786129816  0.9952648201842880
  0.2825456737835398  0.1232610296879170  0.9290743687776603
  0.0878487847255075  0.0909161260603879  0.1133222584699191
  0.1493536118188990  0.1284034338185766  0.1362553841291053
  0.1501393849936815  0.0466434957936294  0.1162996774514299
  0.0666962374237442  0.1856919149166536  0.8899689589912788
  0.0266246984971418  0.1322413201657723  0.9313831887774173
  0.0717579433136491  0.1024214574356281  0.8791024559367502
  0.4235860175553375  0.1533206699093043  0.9233482070647122
  0.4052396420806472  0.0492832350432649  0.7707217859587898
  0.3616571006875852  0.2324387943751555  0.9489335457339428
  0.3369382844890841  0.2778703230079506  0.8916416543155551
  0.4633027659800232  0.0223864556607719  0.8945587001637449
  0.5055714113592951  0.0882819614124358  0.8762034754659616
  0.4859257700110088  0.0312674980804898  0.8251926335003024
  0.3106086006349142  0.1516287353172568  0.7082711867719599
  0.2692540825576121  0.0944250836205080  0.7424431690522016
  0.3315336109340491  0.0695027799849393  0.7097697698404853
  0.2265318819434605  0.3723231555543936  0.9535923647972665
  0.2883768618986196  0.3584143964831579  0.9163036721777433
  0.2903939309561770  0.2872526106304698  0.9982816631338864
  0.2208245512024292  0.2633150569476454  0.9861032255144832
  0.1728998056737962  0.2552455615732954  0.7922043525267630
  0.1763422938006503  0.1705140352993677  0.8847330142057501
  0.2794436306603110  0.2020501388618723  0.8108562010899013
  0.2183177206506662  0.3181103707938743  0.8823557715307334
  0.0519045431663313  0.2961399343573461  0.6929316038968470
  0.1613860257714552  0.2595664650972972  0.6748985984052597
  0.1431427916521038  0.3659759376681648  0.7345760791783753
  0.0625784909288874  0.2904161074954179  0.8075310635527232
  0.0868318710132946  0.1837101923638369  0.7491855541741730
  0.2763210217660660  0.2227807116389235  0.9304658866381559
  0.2166655221161883  0.2359299492040167  0.8483860038586599
  0.1147062627646704  0.2750576603023976  0.7429554048562600
 
  0.00000000E+00  0.00000000E+00  0.00000000E+00
  0.00000000E+00  0.00000000E+00  0.00000000E+00
  0.00000000E+00  0.00000000E+00  0.00000000E+00
  0.00000000E+00  0.00000000E+00  0.00000000E+00
  0.00000000E+00  0.00000000E+00  0.00000000E+00
  0.00000000E+00  0.00000000E+00  0.00000000E+00
  0.00000000E+00  0.00000000E+00  0.00000000E+00
  0.00000000E+00  0.00000000E+00  0.00000000E+00
  0.00000000E+00  0.00000000E+00  0.00000000E+00
  0.00000000E+00  0.00000000E+00  0.00000000E+00
  0.00000000E+00  0.00000000E+00  0.00000000E+00
  0.00000000E+00  0.00000000E+00  0.00000000E+00
  0.00000000E+00  0.00000000E+00  0.00000000E+00
  0.00000000E+00  0.00000000E+00  0.00000000E+00
  0.00000000E+00  0.00000000E+00  0.00000000E+00
  0.00000000E+00  0.00000000E+00  0.00000000E+00
  0.00000000E+00  0.00000000E+00  0.00000000E+00
  0.00000000E+00  0.00000000E+00  0.00000000E+00
  0.00000000E+00  0.00000000E+00  0.00000000E+00
  0.00000000E+00  0.00000000E+00  0.00000000E+00
  0.00000000E+00  0.00000000E+00  0.00000000E+00
  0.00000000E+00  0.00000000E+00  0.00000000E+00
  0.00000000E+00  0.00000000E+00  0.00000000E+00
  0.00000000E+00  0.00000000E+00  0.00000000E+00
  0.00000000E+00  0.00000000E+00  0.00000000E+00
  0.00000000E+00  0.00000000E+00  0.00000000E+00
  0.00000000E+00  0.00000000E+00  0.00000000E+00
  0.00000000E+00  0.00000000E+00  0.00000000E+00
  0.00000000E+00  0.00000000E+00  0.00000000E+00
  0.00000000E+00  0.00000000E+00  0.00000000E+00
  0.00000000E+00  0.00000000E+00  0.00000000E+00
  0.00000000E+00  0.00000000E+00  0.00000000E+00
  0.00000000E+00  0.00000000E+00  0.00000000E+00
  0.00000000E+00  0.00000000E+00  0.00000000E+00
  0.00000000E+00  0.00000000E+00  0.00000000E+00
  0.00000000E+00  0.00000000E+00  0.00000000E+00
  0.00000000E+00  0.00000000E+00  0.00000000E+00
  0.00000000E+00  0.00000000E+00  0.00000000E+00
  0.00000000E+00  0.00000000E+00  0.00000000E+00
  0.00000000E+00  0.00000000E+00  0.00000000E+00
  0.00000000E+00  0.00000000E+00  0.00000000E+00
  0.00000000E+00  0.00000000E+00  0.00000000E+00
  0.00000000E+00  0.00000000E+00  0.00000000E+00
  0.00000000E+00  0.00000000E+00  0.00000000E+00
  0.00000000E+00  0.00000000E+00  0.00000000E+00
  0.00000000E+00  0.00000000E+00  0.00000000E+00
  0.00000000E+00  0.00000000E+00  0.00000000E+00
  0.00000000E+00  0.00000000E+00  0.00000000E+00
  0.00000000E+00  0.00000000E+00  0.00000000E+00
  0.00000000E+00  0.00000000E+00  0.00000000E+00
  0.00000000E+00  0.00000000E+00  0.00000000E+00
  0.00000000E+00  0.00000000E+00  0.00000000E+00
  0.00000000E+00  0.00000000E+00  0.00000000E+00
  0.00000000E+00  0.00000000E+00  0.00000000E+00
  0.00000000E+00  0.00000000E+00  0.00000000E+00
  0.00000000E+00  0.00000000E+00  0.00000000E+00
  0.00000000E+00  0.00000000E+00  0.00000000E+00
  0.00000000E+00  0.00000000E+00  0.00000000E+00
  0.00000000E+00  0.00000000E+00  0.00000000E+00
  0.00000000E+00  0.00000000E+00  0.00000000E+00
  0.00000000E+00  0.00000000E+00  0.00000000E+00
  0.00000000E+00  0.00000000E+00  0.00000000E+00
  0.00000000E+00  0.00000000E+00  0.00000000E+00
  0.00000000E+00  0.00000000E+00  0.00000000E+00
  0.00000000E+00  0.00000000E+00  0.00000000E+00
  0.00000000E+00  0.00000000E+00  0.00000000E+00
  0.00000000E+00  0.00000000E+00  0.00000000E+00
  0.00000000E+00  0.00000000E+00  0.00000000E+00
  0.00000000E+00  0.00000000E+00  0.00000000E+00
  0.00000000E+00  0.00000000E+00  0.00000000E+00
  0.00000000E+00  0.00000000E+00  0.00000000E+00
  0.00000000E+00  0.00000000E+00  0.00000000E+00
  0.00000000E+00  0.00000000E+00  0.00000000E+00
  0.00000000E+00  0.00000000E+00  0.00000000E+00
  0.00000000E+00  0.00000000E+00  0.00000000E+00
  0.00000000E+00  0.00000000E+00  0.00000000E+00
  0.00000000E+00  0.00000000E+00  0.00000000E+00
  0.00000000E+00  0.00000000E+00  0.00000000E+00
  0.00000000E+00  0.00000000E+00  0.00000000E+00
  0.00000000E+00  0.00000000E+00  0.00000000E+00
  0.00000000E+00  0.00000000E+00  0.00000000E+00
  0.00000000E+00  0.00000000E+00  0.00000000E+00
  0.00000000E+00  0.00000000E+00  0.00000000E+00
  0.00000000E+00  0.00000000E+00  0.00000000E+00
  0.00000000E+00  0.00000000E+00  0.00000000E+00
  0.00000000E+00  0.00000000E+00  0.00000000E+00
  0.00000000E+00  0.00000000E+00  0.00000000E+00
  0.00000000E+00  0.00000000E+00  0.00000000E+00
  0.00000000E+00  0.00000000E+00  0.00000000E+00
  0.00000000E+00  0.00000000E+00  0.00000000E+00
  0.00000000E+00  0.00000000E+00  0.00000000E+00
  0.00000000E+00  0.00000000E+00  0.00000000E+00
  0.00000000E+00  0.00000000E+00  0.00000000E+00
  0.00000000E+00  0.00000000E+00  0.00000000E+00
  0.00000000E+00  0.00000000E+00  0.00000000E+00
  0.00000000E+00  0.00000000E+00  0.00000000E+00
  0.00000000E+00  0.00000000E+00  0.00000000E+00
  0.00000000E+00  0.00000000E+00  0.00000000E+00
  0.00000000E+00  0.00000000E+00  0.00000000E+00
  0.00000000E+00  0.00000000E+00  0.00000000E+00
  0.00000000E+00  0.00000000E+00  0.00000000E+00
  0.00000000E+00  0.00000000E+00  0.00000000E+00
  0.00000000E+00  0.00000000E+00  0.00000000E+00
  0.00000000E+00  0.00000000E+00  0.00000000E+00
  0.00000000E+00  0.00000000E+00  0.00000000E+00
  0.00000000E+00  0.00000000E+00  0.00000000E+00
  0.00000000E+00  0.00000000E+00  0.00000000E+00
  0.00000000E+00  0.00000000E+00  0.00000000E+00
  0.00000000E+00  0.00000000E+00  0.00000000E+00
  0.00000000E+00  0.00000000E+00  0.00000000E+00
